c WARNING: for repeatability, setting FPU to use double precision
d VARIABLES            138130       
d CONSTRAINTS          502920       
c ============================[ Problem Statistics ]=============================
c |                                                                             |
c |  Number of variables:        138130                                         |
c |  Number of clauses:          502920                                         |
c |  Parse time:                   0.07 s                                       |
c |                                                                             |
c ============================[ Search Statistics ]==============================
c | Conflicts |          ORIGINAL         |          LEARNT          | Progress |
c |           |    Vars  Clauses Literals |    Limit  Clauses Lit/Cl |          |
c ===============================================================================
c |       100 |  109163   428290  1076041 |   157039      100      4 | 20.971 % |
c |       250 |  109163   428290  1076041 |   172743      250      5 | 20.971 % |
c |       475 |  109163   428290  1076041 |   190017      475      7 | 20.971 % |
c |       812 |  109163   428290  1076041 |   209019      812      6 | 20.971 % |
c |      1318 |  109163   428290  1076041 |   229921     1318      9 | 20.971 % |
c |      2077 |  109163   428290  1076041 |   252913     2077      8 | 20.971 % |
c |      3216 |  109163   428290  1076041 |   278205     3216      9 | 20.971 % |
c |      4924 |  109163   428290  1076041 |   306025     4924     10 | 20.971 % |
c |      7486 |  109163   428290  1076041 |   336628     7486     14 | 20.971 % |
c |     11330 |  109163   428290  1076041 |   370291    11330     20 | 20.971 % |
c |     17096 |  109163   428290  1076041 |   407320    17096     24 | 20.971 % |
c |     25745 |  109163   428290  1076041 |   448052    25745     36 | 20.971 % |
c |     38719 |  109163   428290  1076041 |   492857    38719     53 | 20.971 % |
c ===============================================================================
c restarts              : 166
c conflicts             : 54156          (2520 /sec)
c decisions             : 818184         (0.00 % random) (38074 /sec)
c propagations          : 134051163      (6238030 /sec)
c conflict literals     : 3119343        (14.90 % deleted)
d RESTARTS             166
d FAILURES             54156        
d NODES                818184       
d BACKTRACKS           818184       
d PROPAGATIONS         134051163    
d NOGOODSIZE           57.60 
d MEMORY               64.00 
d TIME                 21.4893 

s UNSATISFIABLE
